# Si_md_nvt.in

# variables
variable	lf equal 3 # mult. factor for base length
variable	dt equal 0.001 # timestep
variable	T equal 10.0 # temperature

# general parameters
dimension	3
units		metal
boundary	p p p
timestep	${dt} # ps
atom_style	atomic

# generate particles in fcc lattice
lattice		fcc 5.3 # lattice generator
region		my_box block 0 ${lf} 0 ${lf} 0 ${lf} units lattice # box generator
create_box	1 my_box # generate box
region		particles block 0 ${lf} 0 ${lf} 0 ${lf} # particle generator
create_atoms	1 region particles # generate particles

# atom interactions
mass		1 39.948 # atom mass
pair_style	nn 10.0 Ar 1 # lj 6-12 potential
pair_coeff	1 ann_Ar_md # potential file

# init
velocity	all create $T 1 mom yes rot yes dist gaussian

# neighbor
neigh_modify	every 1 delay 10 check yes # neighbor list

# fixes
fix		Ensemble all npt temp $T $T $(100.0*dt) iso 0.0 0.0 $(5000.0*dt)

# thermo output
#thermo		50
thermo		1
thermo_style	custom step etotal temp press vol

# data output
dump		DUMP all custom 500 Ar_md_npt.dump id type x y z
restart		1000 Ar_md_npt.restart

# run instruction
run		2500

